NAME          DCAP_3_4_2_200_SS7
ROWS
 N  OBJ
 L  CON1
 L  CON2
 L  CON3
 L  CON4
 L  CON5
 L  CON6
 L  CON7
 L  CON8
 L  CON9
 L  CON10
 L  CON11
 L  CON12
 E  CON13
 E  CON14
 E  CON15
 E  CON16
 E  CON17
 E  CON18
 E  CON19
 E  CON20
COLUMNS
    x[1,1]    OBJ       6.180167      CON1      1.000000    
    x[1,1]    CON7      -1.000000     CON8      -1.000000   
    x[1,2]    OBJ       5.039546      CON2      1.000000    
    x[1,2]    CON8      -1.000000   
    x[2,1]    OBJ       6.732585      CON3      1.000000    
    x[2,1]    CON9      -1.000000     CON10     -1.000000   
    x[2,2]    OBJ       7.443064      CON4      1.000000    
    x[2,2]    CON10     -1.000000   
    x[3,1]    OBJ       6.563535      CON5      1.000000    
    x[3,1]    CON11     -1.000000     CON12     -1.000000   
    x[3,2]    OBJ       6.054841      CON6      1.000000    
    x[3,2]    CON12     -1.000000   
    MARKER    'MARKER'                'INTORG'
    u[1,1]    OBJ       48.076654     CON1      -1.000000   
    u[1,2]    OBJ       49.466655     CON2      -1.000000   
    u[2,1]    OBJ       49.996186     CON3      -1.000000   
    u[2,2]    OBJ       32.230043     CON4      -1.000000   
    u[3,1]    OBJ       20.066487     CON5      -1.000000   
    u[3,2]    OBJ       27.484319     CON6      -1.000000   
    y[1,1,1]  OBJ       7.691348      CON7      0.815118    
    y[1,1,1]  CON13     1.000000    
    y[1,1,2]  OBJ       8.431046      CON8      1.230353    
    y[1,1,2]  CON14     1.000000    
    y[1,2,1]  OBJ       5.853051      CON7      0.594451    
    y[1,2,1]  CON15     1.000000    
    y[1,2,2]  OBJ       6.740931      CON8      1.238254    
    y[1,2,2]  CON16     1.000000    
    y[1,3,1]  OBJ       7.314674      CON7      0.743382    
    y[1,3,1]  CON17     1.000000    
    y[1,3,2]  OBJ       8.274336      CON8      0.900192    
    y[1,3,2]  CON18     1.000000    
    y[1,4,1]  OBJ       5.702658      CON7      0.593883    
    y[1,4,1]  CON19     1.000000    
    y[1,4,2]  OBJ       7.257596      CON8      0.897719    
    y[1,4,2]  CON20     1.000000    
    y[2,1,1]  OBJ       5.287263      CON9      0.815118    
    y[2,1,1]  CON13     1.000000    
    y[2,1,2]  OBJ       8.316009      CON10     1.230353    
    y[2,1,2]  CON14     1.000000    
    y[2,2,1]  OBJ       5.872845      CON9      0.594451    
    y[2,2,1]  CON15     1.000000    
    y[2,2,2]  OBJ       9.264204      CON10     1.238254    
    y[2,2,2]  CON16     1.000000    
    y[2,3,1]  OBJ       5.678390      CON9      0.743382    
    y[2,3,1]  CON17     1.000000    
    y[2,3,2]  OBJ       8.223660      CON10     0.900192    
    y[2,3,2]  CON18     1.000000    
    y[2,4,1]  OBJ       6.061961      CON9      0.593883    
    y[2,4,1]  CON19     1.000000    
    y[2,4,2]  OBJ       7.004842      CON10     0.897719    
    y[2,4,2]  CON20     1.000000    
    y[3,1,1]  OBJ       6.063574      CON11     0.815118    
    y[3,1,1]  CON13     1.000000    
    y[3,1,2]  OBJ       8.951908      CON12     1.230353    
    y[3,1,2]  CON14     1.000000    
    y[3,2,1]  OBJ       6.414149      CON11     0.594451    
    y[3,2,1]  CON15     1.000000    
    y[3,2,2]  OBJ       7.376878      CON12     1.238254    
    y[3,2,2]  CON16     1.000000    
    y[3,3,1]  OBJ       9.202539      CON11     0.743382    
    y[3,3,1]  CON17     1.000000    
    y[3,3,2]  OBJ       5.023220      CON12     0.900192    
    y[3,3,2]  CON18     1.000000    
    y[3,4,1]  OBJ       7.552449      CON11     0.593883    
    y[3,4,1]  CON19     1.000000    
    y[3,4,2]  OBJ       9.041293      CON12     0.897719    
    y[3,4,2]  CON20     1.000000    
    z[1,1]    OBJ       721.636861    CON13     1.000000    
    z[1,2]    OBJ       945.788869    CON14     1.000000    
    z[2,1]    OBJ       768.335163    CON15     1.000000    
    z[2,2]    OBJ       649.775074    CON16     1.000000    
    z[3,1]    OBJ       719.397812    CON17     1.000000    
    z[3,2]    OBJ       508.875961    CON18     1.000000    
    z[4,1]    OBJ       930.866232    CON19     1.000000    
    z[4,2]    OBJ       977.045666    CON20     1.000000    
    MARKER    'MARKER'                 'INTEND'
RHS
    RHS       CON1      -0.000000     CON2      -0.000000   
    RHS       CON3      -0.000000     CON4      -0.000000   
    RHS       CON5      -0.000000     CON6      -0.000000   
    RHS       CON7      -0.000000     CON8      -0.000000   
    RHS       CON9      -0.000000     CON10     -0.000000   
    RHS       CON11     -0.000000     CON12     -0.000000   
    RHS       CON13     1.000000      CON14     1.000000    
    RHS       CON15     1.000000      CON16     1.000000    
    RHS       CON17     1.000000      CON18     1.000000    
    RHS       CON19     1.000000      CON20     1.000000    
BOUNDS
 BV BOUND     u[1,1]  
 BV BOUND     u[1,2]  
 BV BOUND     u[2,1]  
 BV BOUND     u[2,2]  
 BV BOUND     u[3,1]  
 BV BOUND     u[3,2]  
 BV BOUND     y[1,1,1]
 BV BOUND     y[1,1,2]
 BV BOUND     y[1,2,1]
 BV BOUND     y[1,2,2]
 BV BOUND     y[1,3,1]
 BV BOUND     y[1,3,2]
 BV BOUND     y[1,4,1]
 BV BOUND     y[1,4,2]
 BV BOUND     y[2,1,1]
 BV BOUND     y[2,1,2]
 BV BOUND     y[2,2,1]
 BV BOUND     y[2,2,2]
 BV BOUND     y[2,3,1]
 BV BOUND     y[2,3,2]
 BV BOUND     y[2,4,1]
 BV BOUND     y[2,4,2]
 BV BOUND     y[3,1,1]
 BV BOUND     y[3,1,2]
 BV BOUND     y[3,2,1]
 BV BOUND     y[3,2,2]
 BV BOUND     y[3,3,1]
 BV BOUND     y[3,3,2]
 BV BOUND     y[3,4,1]
 BV BOUND     y[3,4,2]
 BV BOUND     z[1,1]  
 BV BOUND     z[1,2]  
 BV BOUND     z[2,1]  
 BV BOUND     z[2,2]  
 BV BOUND     z[3,1]  
 BV BOUND     z[3,2]  
 BV BOUND     z[4,1]  
 BV BOUND     z[4,2]  
ENDATA
